
&CONTROL
 calculation = 'relax'
 prefix = "LiN2"
 pseudo_dir ="./."
 outdir = "./."
 nstep = 50
/
&SYSTEM
 ibrav = 0
 ntyp = 2
 nat = 3
 ecutwfc = 40.0D0
 occupations="smearing"
 degauss=0.05
/
&ELECTRONS
 conv_thr = 1.D-7, 
mixing_mode = "local-TF"
/
&IONS
/
ATOMIC_SPECIES
N 14.007 N.pbe-n-kjpaw_psl.1.0.0.UPF
Li 6.941 Li.pbe-s-kjpaw_psl.1.0.0.UPF
ATOMIC_POSITIONS angstrom
N  7.7 7.5 9.23205
N 6.56 7.5 9.23205
Li 7.1 9.0 9.23205

K_POINTS gamma

CELL_PARAMETERS angstrom
 15 0 0
  0 15 0
 0  0 15
