&BANDS
 outdir = './tmp/',
 prefix = 'silicon',
 filband = 'si.bands',
/
