 &control
    calculation = 'scf',
    prefix = 'n2'
    outdir = './.'
    pseudo_dir = './.'
 /
 &system
    ibrav =  0,
    nat =  2,
    ntyp = 1,
    ecutwfc = 25
 /
 &electrons
    mixing_beta = 0.6
 /
ATOMIC_SPECIES
 N 14.007 N.pbe-n-kjpaw_psl.1.0.0.UPF

ATOMIC_POSITIONS angstrom
 N  7.7 7.5 9.23205
 N 6.56 7.5 9.23205

CELL_PARAMETERS (angstrom)
 15 0 0
  0 15 0
 0 0 15

K_POINTS (gamma)

